Route #1: 33 30 28 26 32 
Route #2: 39 36 38 41 40 43 37 35 
Route #3: 23 21 19 18 48 25 
Route #4: 27 29 31 34 50 
Route #5: 11 22 49 20 24 
Route #6: 42 44 3 1 
Route #7: 5 45 2 7 6 8 46 4 
Route #8: 14 47 12 15 16 9 10 13 17 
Objective: 77824.0
